18 965
520 7 440 7 284 7 103 9 923 13
525 7 479 7 358 7 163 9 10 11 816 15 659 22
519 7 499 7 409 7 253 9 146 16
525 7 479 7 355 7 106 9 927 13
525 7 479 7 355 7 106 9 927 13
525 7 505 7 381 7 218 9 50 11 850 15 666 21
520 7 444 7 352 7 190 9 19 11 841 15 712 23
525 7 482 7 365 7 115 9 943 13
525 7 446 7 265 7 65 9 890 11 728 18
521 7 441 7 261 7 104 9 962 11 811 18
529 7 485 7 341 11
525 7 445 7 264 7 63 9 889 11 721 18
525 7 445 7 264 7 63 9 889 11 721 18
525 7 445 7 264 7 63 9 889 11 721 18
525 7 479 7 355 7 106 9 927 13
525 7 479 7 355 7 106 9 927 13
525 7 479 7 355 7 106 9 931 13
525 7 482 7 367 7 213 9 32 11 824 18
